p cnf 13 49
4 5 -11 0
3 -7 11 0
-1 2 -13 0
-3 -10 -13 0
-5 7 -10 0
-4 -10 11 0
2 10 -11 0
8 10 -13 0
-2 5 8 0
3 -6 -13 0
-2 8 -9 0
-3 -4 -12 0
-1 -10 -13 0
-4 -6 9 0
3 -8 10 0
-5 6 -13 0
5 -11 12 0
2 6 -13 0
-5 -9 -10 0
11 -12 13 0
3 -6 10 0
6 -9 10 0
-3 5 12 0
3 -7 -10 0
3 6 9 0
2 10 -13 0
1 6 -11 0
3 4 7 0
-2 -4 9 0
2 -5 -8 0
5 7 11 0
-4 -8 -11 0
2 -8 10 0
1 10 13 0
2 -7 -11 0
1 7 9 0
6 12 -13 0
2 -9 12 0
6 10 -11 0
-4 5 6 0
1 -4 -8 0
-8 10 11 0
1 -2 -5 0
5 9 11 0
1 -10 -13 0
7 8 -13 0
-4 7 12 0
-3 -4 13 0
-3 -6 10 0
